25 40
1 2 5
1 6 3
2 3 3
2 7 2
3 4 5
3 8 1
4 5 1
4 9 5
5 10 1
6 7 2
6 11 5
7 8 2
7 12 3
8 9 2
8 13 4
9 10 2
9 14 2
10 15 3
11 12 5
11 16 5
12 13 2
12 17 3
13 14 4
13 18 2
14 15 1
14 19 5
15 20 5
16 17 2
16 21 3
17 18 3
17 22 4
18 19 3
18 23 2
19 20 3
19 24 5
20 25 1
21 22 1
22 23 4
23 24 2
24 25 2
